c Lingeling SAT Solver
c 
c Version ala b02aa1a04343558c4252b5f4a723be021964f652
c 
c Copyright (C) 2010-2012 Armin Biere JKU Linz Austria.
c All rights reserved.
c 
c released Sat Oct 13 14:05:26 CEST 2012
c compiled Sat Feb 16 02:48:12 EST 2013
c 
c gcc (Debian 4.4.5-8) 4.4.5
c -Wall -O3 -DNLGLOG -DNDEBUG -DNCHKSOL -DNLGLPICOSAT 
c Linux greencar2 2.6.32-5-amd64 x86_64
c 
c reading input file p12.cnf
c no embedded options
c found 'p cnf 193089 601302' header
c read 193089 variables, 601302 clauses, 1249405 literals in 0.0 seconds
c
c feature vars 193089
c feature lits.total 1249405
c feature lits.pos 663635
c feature lits.neg 585770
c feature clauses.total 601302
c feature clauses.unit 71921
c feature clauses.bin 421859
c feature clauses.trn 106122
c feature clauses.lrg 1400
c feature cog.val.min 1
c feature cog.val.avg 86170
c feature cog.val.max 186947
c feature cog.var.min 1
c feature cog.var.avg 96545
c feature cog.var.max 193088
c
c
c --abstime=0
c --acts=2
c --actavgmax=120
c --actstdmin=20
c --actstdmax=80
c --agile=23
c --bias=2
c --block=1
c --blkrtc=0
c --blkclslim=2000
c --blkocclim=2000
c --blkmaxeff=2147483647
c --blkmineff=10000000
c --blkreleff=20
c --card=0
c --cce=3
c --ccemaxeff=100000000
c --ccemineff=5000000
c --ccereleff=3
c --check=0
c --cgrclsr=1
c --cgrmaxority=20
c --cgrmaxeff=8000000
c --cgrmineff=200000
c --cgreleff=1
c --cgrexteq=1
c --cgrextand=1
c --cgrextunits=1
c --cgrextite=1
c --cgrextxor=1
c --cliff=1
c --cliffreleff=8
c --cliffmineff=10000000
c --cliffmaxeff=100000000
c --compact=0
c --decompose=1
c --defragint=10000000
c --defragfree=50
c --elim=1
c --elmrtc=0
c --elmblk=1
c --elmclslim=1000
c --elmocclim=1000
c --elmaxeff=100000000
c --elmineff=5000000
c --elmreleff=10
c --sleeponabort=0
c --exitonabort=0
c --flipping=1
c --flipint=2
c --flipdur=50
c --fliptop=1
c --force=0
c --gauss=1
c --gaussextrall=1
c --gaussmaxor=20
c --gaussexptrn=1
c --gaussmaxeff=50000000
c --gaussmineff=2000000
c --gaussreleff=2
c --gluescale=2
c --gluekeep=0
c --inprocessing=1
c --cintinc=10000
c --irrlim=20
c --lift=1
c --lftmaxeff=20000000
c --lftmineff=500000
c --lftreleff=6
c --lhbr=1
c --lkhd=1
c --clim=-1
c --mocint=1000
c --move=2
c --log=-1
c --otfs=1
c --phase=0
c --phaseneginit=0
c --plain=0
c --probe=1
c --prbasicmaxeff=100000000
c --prbasicmineff=1000000
c --prbasicreleff=10
c --prbasic=1
c --prbasicroundlim=9
c --queuemergelim=10000
c --queuefactor=833
c --queueinc=20
c --rmincpen=4
c --seed=0
c --smallirr=90
c --smallve=1
c --smallvevars=12
c --randec=1
c --randecint=1000
c --redfixed=0
c --redlbound=0
c --redlexpfac=10
c --redldoutfac=0
c --redloutinc=10000
c --redlinit=1000
c --redlinc=1000
c --redinoutinc=100
c --redlmininc=10
c --redlmaxinc=200
c --redlminrel=10
c --redlmaxrel=300
c --redlminabs=500
c --redlmaxabs=1000000
c --reduce=1
c --restart=2
c --restartint=5
c --rstinoutinc=110
c --simplify=1
c --simpdelay=100
c --simpen=4
c --sizepen=1000000
c --sizemaxpen=3
c --sortlits=0
c --syncint=111111
c --termint=122222
c --ternres=1
c --ternresrtc=0
c --trnrmineff=4000000
c --trnrmaxeff=40000000
c --trnreleff=10
c --transred=1
c --trdmineff=100000
c --trdmaxeff=2000000
c --trdreleff=10
c --unhide=1
c --unhdextstamp=1
c --unhdhbr=0
c --unhdmaxeff=20000000
c --unhdmineff=1000000
c --unhdreleff=4
c --unhdlnpr=3
c --unhdroundlim=5
c --verbose=1
c --witness=1
c [limits] no conflict limit
c [limits] simplification delayed by 100 to 100 conflicts
c 
c  seconds         irredundant          redundant clauses agility   height
c          variables clauses conflicts large binary ternary    glue         MB
c 
c *    0.0  108122   457123         0       0      0     0  57  0.0   0.0   40
c [cut-width] 153755, max 233266, min4 110696 at 75%, min10 24200 at 86%
c [decision-order] bias 1, old 1
c [queue-schedule-all-variables]
c s    0.0  108122   457123         0       0      0     0  57  0.0   0.0   40
c [simplification-1] limit hit at 100 conflicts
c [simplification-1] simplification penalty of 4
c [ternres-1] limit 4000000 with penalty 0 = 0 + 0
c [ternres-1] all 108122 free variables schedulable
c [ternres-1] 0 ternary resolvents (0 bin, 0 trn)
c [ternres-1] 20711 variables remain 19% (87411 retained)
c [gauss-1] limit 2000000 penalty 0 = 0 + 0
c [gauss-1] extracted 162347 xors of average arity 2.0
c [gauss-1] connected 324699 occurrences of 71891 variables (average 4.5)
c [gauss-1] limit 2000000 penalty 0 = 0 + 0
c [gauss-1] exported 0 unary, 0 binary and 0 ternary equations
c G    0.5  108122   440672       100     100      0     0  74  7.7 184.7   26
c d    0.7   50515   230736       100     100      0     0  74  7.7 184.7   20
c [basicprobe-1] limit 1000000 penalty 0 = 0 + 0
c [basicprobe-1-0] 2820 probes remain 6% after last round
c [basicprobe-1-0] 2 units = 2 failed (100%) + 0 lifted (0%)
c [basicprobe-1-0] removed 2 variables, found 4942 hbrs
c p    0.7   50513   230736       100     100   4942     0  74  7.7 184.7   24
c [cgrclsr-1] limit 200000 penalty 0 = 0 + 0
c [cgrclsr-1] all 50513 free variables schedulable
c [cgrclsr-1] fully completed congruence closure
c [lift-1] limit 500000 with penalty 0 = 0 + 0
c [lift-1] using 50513 probes 100%
c [lift-1] 50485 variables remain 100% (28 retained)
c [cliff-1] limit of 10000000 steps penalty 0 = 0 + 0
c [cliff-1] failed 0, lifted 0
c [unhide-1] limit 1000000 with penalty 0 = 0 + 0
c [unhide-1-1] 0 units, 0 failed, 17997 tauts, 0 hbrs, 38 literals
c u    1.3   50513   212730       100     100  19979     0  74  7.7 184.7   24
c [transred-1] limit 100000 with penalty 0 = 0 + 0
c t    1.3   50513   212728       100     100  19975     0  74  7.7 184.7   24
c [block-1] scheduling all variables this time
c [block-1] scheduled 50513 variables 100%
c [block-1] limit of 10000000 steps penalty 0 = 0 + 0
c [block-1] fully completed blocked clause elimination
c [block-1] transition to [ all 0 rem 0 ] state
c [block-1] eliminated 3200 blocked clauses
c k    1.4   50513   209528       100     100  19975  3200  74  7.7 184.7   20
c [cce-1] scheduling all variables this time
c [cce-1] limit of 10000000 steps penalty 0 = 0 + 0
c [cce-1] incomplete covered clause elimination 46339 not tried 92%
c [cce-1] transition to [ all 1 rem 1 ] state
c [cce-1] eliminated 129 covered clauses
c E    1.8   50511   209399       100     100  30596  3200  74  7.7 184.7   20
c [elim-1] scheduling all variables this time
c [elim-1] scheduled 50511 variables 100%
c [elim-1] limit of 5000000 steps penalty 0 = 0 + 0
c [elim-1] incomplete variable elimination 37136 not tried 74%
c [elim-1] transition to [ all 1 rem 1 ] state
c [elim-1] eliminated 5008 = 10% variables out of 50511
c e    2.7   45503   206173       100      56  11613   413  74  7.7 184.7   20
c [phase-1] phase bias: 845 positive 13%, 5590 negative 87%
c [simplification-1] removed 62619 variables 57%
c [simplification-1] limit increments divided by 29
c [simplification-1] arithmetic increase of conflict limit interval by 344
c [simplification-1] new irredundant limit 1987710
c [simplification-1] new conflict limit 444
c [simplification-1] simplification penalty reduced to 3
c [simplification-2] limit hit at 447 conflicts
c [simplification-2] simplification penalty of 3
c [ternres-2] limit 2000000 with penalty 1 = 1 + 0
c [ternres-2] 8717 schedulable variables 19%
c [ternres-2] 0 ternary resolvents (0 bin, 0 trn)
c [ternres-2] fully completed ternary resolution
c [gauss-2] limit 1000000 penalty 1 = 1 + 0
c [gauss-2] extracted 343 xors of average arity 3.0
c [gauss-2] connected 1029 occurrences of 653 variables (average 1.6)
c [gauss-2] limit 1000000 penalty 1 = 1 + 0
c [gauss-2] fully completed
c [gauss-2] exported 0 unary, 0 binary and 0 ternary equations
c G    2.9   45503   206173       447     394  11617   418  37  8.8 400.1   20
c [basicprobe-2] limit 1000000 penalty 0 = 0 + 0
c [basicprobe-2-0] 2521 probes remain 6% after last round
c [basicprobe-2-0] removed 0 variables, found 554 hbrs
c p    3.0   45503   206173       447     394  12171   418  37  8.8 400.1   24
c [cgrclsr-2] limit 100000 penalty 1 = 1 + 0
c [cgrclsr-2] all 45503 free variables schedulable
c [cgrclsr-2] fully completed congruence closure
c [lift-2] limit 250000 with penalty 1 = 1 + 0
c [lift-2] using 45478 probes 100%
c [lift-2] 45463 variables remain 100% (40 retained)
c [cliff-2] limit of 5000000 steps penalty 1 = 1 + 0
c [cliff-2] failed 0, lifted 0
c [unhide-2] limit 1000000 with penalty 0 = 0 + 0
c [unhide-2-2] 0 units, 0 failed, 837 tauts, 0 hbrs, 118 literals
c u    3.4   45503   206166       447     394  11425   418  37  8.8 400.1   24
c [transred-3] limit 100000 with penalty 0 = 0 + 0
c t    3.4   45503   206164       447     394  11422   418  37  8.8 400.1   24
c [block-2] scheduling all variables this time
c [block-2] scheduled 45503 variables 100%
c [block-2] limit of 10000000 steps penalty 0 = 0 + 0
c [block-2] fully completed blocked clause elimination
c [block-2] transition to [ all 0 rem 0 ] state
c [block-2] eliminated 0 blocked clauses
c [cce-2] 43460 variables 96% will be scheduled this time
c [cce-2] limit of 10000000 steps penalty 0 = 0 + 0
c [cce-2] 43176 variables 95% remain to be tried next time
c [cce-2] transition to [ all 0 rem 1 ] state
c [cce-2] eliminated 266 covered clauses
c E    3.8   45503   205898       447     394  11819   418  37  8.8 400.1   20
c [elim-2] 37066 variables 81% will be scheduled this time
c [elim-2] scheduled 37066 variables 81%
c [elim-2] limit of 5000000 steps penalty 0 = 0 + 0
c [elim-2] 27231 variables 60% remain to be tried next time
c [elim-2] transition to [ all 0 rem 1 ] state
c [elim-2] eliminated 787 = 2% variables out of 45503
c e    4.8   44716   205607       447     381   8688   418  37  8.8 400.1   20
c [phase-2] phase bias: 1 positive 25%, 3 negative 75%
c [simplification-2] removed 787 variables 1%
c [simplification-2] no reduction of limit increments
c [simplification-2] arithmetic increase of conflict limit interval by 10000
c [simplification-2] new irredundant limit 1987710
c [simplification-2] new conflict limit 10791
c [simplification-2] simplification penalty reduced to 2
c R    4.9   44716   205607       978     862   8698   452   5  7.5 229.2   24
c -    5.0   44716   205607      1163     500   8710   481   4  7.0 196.8   24
c 1    5.1   44716   205607      1348     649   8720   506   3  6.8 238.0   24
c 
c  seconds         irredundant          redundant clauses agility   height
c          variables clauses conflicts large binary ternary    glue         MB
c 
c blkd: 2 bces, 3200 removed, 1198523 resolutions, 3370897 steps
c blkd: 3200 blocking literals 1%, 0 pure
c cces: 2 cces, 387 eliminated, 387 ate 100%, 0 abce 0%
c cces: 8916 probed, 0 lifted, 2 failed
c clff: 2 cliffs, 0 lifted, 0 failed
c clff: 4863 decisions, 15017762 steps
c clls: 1 sat, 0 simp, 0 freeze, 0 melt
c clls: 1850707 add, 0 assume,, 0 deref, 0 failed
c clls: 0 cassume, 0 mosat
c coll: 12 gcs, 0 rescored clauses
c cgrs: 2 count, 300000 esteps, 46606 csteps
c cgrs: 0 eqs, 0 units
c cgrs: 0 matched (0 ands 0%, 0 xors 0%, 0 ites 0%)
c cgrs: 0 simplified (0 ands 0%, 0 xors 0%, 0 ites 0%)
c cgrs: 1657 extracted (1416 ands 85%, 241 xors 15%, 0 ites 0%)
c dcps: 2 decompositions, 57607 equivalent 30%
c decs: 16743 decision, 16 random 0.096%
c decs: 3656 flipped 21.836% (in 8 phases)
c elms: 2 elims, 5795 eliminated 3%
c elms: 5795 small 100%, 0 large 0%
c elms: 23362 tried small, 5795 succeeded 25%, 17567 failed 75%
c elms: 0 subsumed, 0 strengthened, 0 blocked
c elms: 313784 copies, 217646 resolutions, 649926 ipos
c elms: 2 subchks, 0 strchks
c frcs: 0 computed, 24.8 - 75.2 average min-cut range
c gaus: 2 extractions, 162690 extracted, 2.0 size, 3 max
c gaus: exported 0 units, 0 binary and 0 ternary equations
c gaus: 0 gc, 6000112 steps, 3000056 extr 50%, 2237027 elim 37%
c glue: 6.8 avg, 2.7 scaled avg
c glue: 0 maxredglue=15 (0%)
c lift: 2 phases, 258 probed (86 level1 33%, 172 level2 67%)
c lift: 0 units, 0 equivalences, 0 implications
c hbrs: 31276 hbrs = 31276 trn 100% + 0 lrg 0%, 0 sub 0%
c lrnd: 1335 clauses, 859 uips 64%, 20.6 length, 6.8 glue
c ints: 94 luby (7608 steps), 0 inout (0 steps)
c mins: 27544 learned lits, 6% minimized
c move: moved 3587, 387 binary 11%, 3200 ternary 89%
c otfs: str 35 dyn (24 red, 11 irr) 13 drv 37%, 22 rst 63%
c otfs: sub 0 dyn (0 red, 0 irr)
c phas: 2 computed, 6578 set, 846 pos (13%), 5732 neg (87%)
c prbs: 2 basic, 2314 probed, 2 failed, 0 lifted
c prps: 7291836 props, 112 props/dec
c prps: 26% srch, 74% simp, 0% lkhd
c psns: 252671 searches, 15007 hits, 6% hit rate
c queu: 6659 new, 2599 del, 116 maximum priority
c queu: 4044 merged, 1684 collected, 2 gcs
c queu: 1370 deprioritized, 28.3 lines on average
c reds: 1 count, 0 reset, 1 acts 100%, 0 exp 0%
c reds: 1 arithmetic 100%, 1 double 100%
c rmbd: 7 removed, 0 red 0%
c rsts: 47 restarts 51%, 46 skipped 49%
c rsts: 7 kept 14.9% average 21.4%
c simp: 2 count (0 ilim 0%, 0 plim 0%, 2 clim 100%)
c trnr: 2 count, 0 bin, 0 trn, 4815456 steps
c tops: 84971 fixed 44%, 0 iterations
c trds: 4 transitive reductions, 11 removed, 0 failed
c trds: 151 nodes, 209 edges, 202247 steps
c unhd: 2 count, 2 rounds, 2184519 steps
c unhd: 0 non-trivial sccs of average size 0.0
c unhd: 0 units, 0 bin, 0 trn, 0 lrg
c unhd: 0 failed, 0 stamp, 0 lits, 0 bin, 0 trn, 0 lrg
c unhd: 18834 tauts, 0 bin 0%, 0 trn 0%, 0 lrg 0%
c unhd: 18834 tauts, 18834 stamp 100%, 837 red 4%
c unhd: 0 hbrs, 0 trn 0%, 0 lrg 0%, 0 red 0%
c unhd: 156 strd, 0 bin 0%, 0 trn 0%, 156 lrg 100%, 156 red 100%
c vars: 44716 remaining 23% and 148373 removed 77% out of 193089
c vars: 84971 fixed 44%, 5795 eliminated 3%, 57607 equivalent 30%
c vsts: 33784912 visits, 26% srch, 74% simp, 0% lkhd
c vsts: 4.8 search visits per propagation 6599.7 per conflict
c wchs: 6970239 pushed, 3224118 enlarged, 20 defrags
c 
c scaledglue  added       reduced       forcing      resolved     conflicts
c 
c all      1207 100       500 100      3221 100      2346 100       202 100
c 
c  0          0   0         0   0         0   0         0   0         0   0 
c  1         23   2        14   3       167   5        31   1         0   0 
c  2        412  34       166  33      1137  35       762  32        65  32 
c  3        397  33<      120  24<     1204  37<      897  38<       95  47<
c  4        339  28       172  34       669  21       601  26        40  20 
c  5         22   2        16   3        25   1        30   1         1   0 
c  6         12   1        10   2        17   1        23   1         1   0 
c  7          2   0         2   0         2   0         2   0         0   0 
c  8          0   0         0   0         0   0         0   0         0   0 
c  9          0   0         0   0         0   0         0   0         0   0 
c 10          0   0         0   0         0   0         0   0         0   0 
c 11          0   0         0   0         0   0         0   0         0   0 
c 12          0   0         0   0         0   0         0   0         0   0 
c 13          0   0         0   0         0   0         0   0         0   0 
c 14          0   0         0   0         0   0         0   0         0   0 
c 15          0   0         0   0         0   0         0   0         0   0 
c 
c avg             3.0           3.1           2.8           3.0           2.9
c std             0.9           1.1           0.9           0.9           0.8
c 
c 16743 decisions, 1348 conflicts, 266.2 conflicts/sec
c 7291836 propagations, 1.4 megaprops/sec
c 5.1 seconds, 46.1 MB
c 
c    0.048   1% analysis
c    0.216   4% block
c    0.012   0% bump
c    0.000   0% card
c    0.668  13% cce
c    0.472   9% cliff
c    0.012   0% cutwidth
c    0.004   0% decide
c    0.000   0% force
c    0.452   9% gc
c    0.196   4% cgrclsr
c    0.192   4% decomp
c    0.128   3% defrag
c    1.864  37% elim
c    0.528  10% gauss
c    0.156   3% lift
c    0.012   0% mincls
c    0.040   1% phase
c    0.104   2% probe
c    0.004   0% reduce
c    0.016   0% restart
c    0.072   1% ternres
c    0.012   0% transred
c    0.144   3% unhide
c ==================================
c    0.012   0% preprocessing     0%
c    4.744  94% inprocessing    100%
c ==================================
c    4.756  94% simplifying
c    0.000   0% lookahead
c    0.304   6% search
c ==================================
c    5.064 100% all
c
s SATISFIABLE
